[VALIDATOR STDOUT]
Checking plan: /home/jfan5/Safety-gen/runs/benchmark/optic/grippers_20260129_162723/grippers/optic_results/grippers-n2-r13-o11-s11001.plan
Plan executed successfully - checking goal
Plan valid
Final value: 46 

Successful plans:
Value: 46
 /home/jfan5/Safety-gen/runs/benchmark/optic/grippers_20260129_162723/grippers/optic_results/grippers-n2-r13-o11-s11001.plan 46
